data/results/2026_03_24_00_33_27_set_set_set_s002_g010_max.sol
# Objective value = 57
c_n0n4n6 2
c_n1n2n5n6 4
c_n2n3n4n5n6 5
c_n2n5n6 3
c_n1n5n6 3
c_n1n2n6 2
c_n1n2n5 2
c_n3n4n5n6 3
c_n2n4n5n6 3
c_n2n3n5n6 4
c_n2n3n4n6 3
c_n2n3n4n5 4
c_n4n5n6 2
c_n3n5n6 2
c_n3n4n6 2
c_n3n4n5 2
c_n2n4n6 1
c_n2n4n5 2
c_n2n3n6 2
c_n2n3n5 3
c_n2n3n4 3
y_n0n1 0
y_n1n2 1
y_n0n2 0
y_n1n3 1
y_n0n3 0
y_n1n4 1
y_n0n4 0
y_n1n5 1
y_n0n5 0
y_n1n6 1
y_n0n6 0
y_n2n3 1
y_n2n4 1
y_n2n5 0
y_n2n6 0
y_n3n4 1
y_n3n5 0
y_n3n6 0
y_n4n5 0
y_n4n6 0
y_n5n6 0
pos_n0 6
pos_n1 0
pos_n2 3
pos_n3 4
pos_n4 5
pos_n5 2
pos_n6 1
z_n4n6 0
z_n5n6 1
z_n2n6 0
z_n2n5 1
z_n1n6 1
z_n3n6 0
z_n1n5 0
z_n1n3 0
z_n1n4 0
z_n3n5 0
z_n4n5 0
z_n3n4 1
z_n2n4 0
z_n0n6 0
z_n0n3 0
z_n0n2 0
z_n0n5 0
z_n2n3 1
z_n1n2 0
z_n0n4 1
z_n0n1 0
