logs/2026_03_24_00_33_27_set_set_set_s002_g010_max.log
[2026-03-24T00:33:27.880Z] Pipeline "set_set_set_s002_g010" → 2026_03_24_00_33_27_set_set_set_s002_g010_max.sol
Set parameter WLSAccessID
Set parameter WLSSecret
Set parameter LicenseID to value 2792458
Set parameter LogFile to value "gurobi.log"
Using license file /root/gurobi.lic
Academic license 2792458 - for non-commercial use only - registered to an___@studenti.unipg.it

Gurobi Optimizer version 13.0.1 build v13.0.1rc0 (linux64 - "Ubuntu 24.04.4 LTS")
Copyright (c) 2026, Gurobi Optimization, LLC

Warning: Duplicate section found (read 'binary') - Is a variable name equal to an LP file format keyword?
Warning: Duplicate section found (read 'binary') - Is a variable name equal to an LP file format keyword?
Warning: Duplicate section found (read 'binary') - Is a variable name equal to an LP file format keyword?
Warning: Duplicate section found (read 'binary') - Is a variable name equal to an LP file format keyword?
Warning: Duplicate section found (read 'binary') - Is a variable name equal to an LP file format keyword?
Warning: Duplicate section found (read 'binary') - Is a variable name equal to an LP file format keyword?
Warning: Duplicate section found (read 'binary') - Is a variable name equal to an LP file format keyword?
Warning: Duplicate section found (read 'binary') - Is a variable name equal to an LP file format keyword?
Warning: Duplicate section found (read 'binary') - Is a variable name equal to an LP file format keyword?
Warning: Duplicate section found (read 'binary') - Is a variable name equal to an LP file format keyword?
Warning: Further warnings of this type will be omitted.
Read LP format model from file /root/bgw/data/uploads/2026_03_24_00_33_27_set_set_set_s002_g010_max.lp
Reading time = 0.00 seconds
: 318 rows, 70 columns, 808 nonzeros

Using Gurobi shared library /opt/gurobi1301/linux64/lib/libgurobi.so.13.0.1

CPU model: AMD EPYC-Genoa Processor, instruction set [SSE2|AVX|AVX2|AVX512]
Thread count: 16 physical cores, 16 logical processors, using up to 16 threads

Academic license 2792458 - for non-commercial use only - registered to an___@studenti.unipg.it
Optimize a model with 318 rows, 70 columns and 808 nonzeros (Max)
Model fingerprint: 0xc5be1fb1
Model has 21 linear objective coefficients
Variable types: 28 continuous, 42 integer (42 binary)
Coefficient statistics:
  Matrix range     [1e+00, 8e+00]
  Objective range  [1e+00, 1e+00]
  Bounds range     [1e+00, 1e+00]
  RHS range        [1e+00, 9e+00]

Found heuristic solution: objective 21.0000000
Presolve removed 211 rows and 27 columns
Presolve time: 0.00s
Presolved: 107 rows, 43 columns, 349 nonzeros
Variable types: 0 continuous, 43 integer (36 binary)
Found heuristic solution: objective 54.0000000

Root relaxation: objective 1.090000e+02, 36 iterations, 0.00 seconds (0.00 work units)

    Nodes    |    Current Node    |     Objective Bounds      |     Work
 Expl Unexpl |  Obj  Depth IntInf | Incumbent    BestBd   Gap | It/Node Time

     0     0  109.00000    0   26   54.00000  109.00000   102%     -    0s
H    0     0                      55.0000000  109.00000  98.2%     -    0s
     0     0  109.00000    0   26   55.00000  109.00000  98.2%     -    0s
     0     0  109.00000    0   25   55.00000  109.00000  98.2%     -    0s
     0     0  109.00000    0   24   55.00000  109.00000  98.2%     -    0s
H    0     0                      57.0000000  109.00000  91.2%     -    0s
     0     0  108.80000    0   26   57.00000  108.80000  90.9%     -    0s
     0     0  108.40000    0   27   57.00000  108.40000  90.2%     -    0s
     0     0  108.40000    0   26   57.00000  108.40000  90.2%     -    0s
     0     0  106.60000    0   26   57.00000  106.60000  87.0%     -    0s
     0     0  106.60000    0   26   57.00000  106.60000  87.0%     -    0s
     0     0  105.40000    0   25   57.00000  105.40000  84.9%     -    0s
     0     0  103.00000    0   28   57.00000  103.00000  80.7%     -    0s
     0     0  103.00000    0   25   57.00000  103.00000  80.7%     -    0s
     0     0  101.20000    0   26   57.00000  101.20000  77.5%     -    0s
     0     0  101.00000    0   27   57.00000  101.00000  77.2%     -    0s
     0     0  101.00000    0   25   57.00000  101.00000  77.2%     -    0s
     0     0  101.00000    0   25   57.00000  101.00000  77.2%     -    0s
     0     0  101.00000    0   25   57.00000  101.00000  77.2%     -    0s
     0     2  101.00000    0   25   57.00000  101.00000  77.2%     -    0s

Cutting planes:
  Gomory: 7
  Cover: 3
  MIR: 3
  Inf proof: 8
  Zero half: 1
  Mod-K: 2

Explored 1961 nodes (12641 simplex iterations) in 0.15 seconds (0.05 work units)
Thread count was 16 (of 16 available processors)

Solution count 4: 57 55 54 21 

Optimal solution found (tolerance 1.00e-04)
Best objective 5.700000000000e+01, best bound 5.700000000000e+01, gap 0.0000%

Wrote result file '/root/bgw/data/results/2026_03_24_00_33_27_set_set_set_s002_g010_max.sol'

